0 54
1 42
2 43
3 46
4 49
5 51
6 53
7 53
8 53
9 53
10 53
11 53
12 53
13 53
14 53
15 53
16 53
17 53
18 53
19 52
20 49
21 49
22 48
23 45
24 45
25 45
26 46
27 48
28 51
29 52
30 45
31 45
32 45
33 45
34 47
35 47
36 48
37 48
38 43
39 43
40 43
41 38
